NAME = SAfile180,
TOURSIZE = 180,
LENGTH = 1960,
53,31,141,27,114,111,42,21,8,93,79,162,61,15,147,40,46,138,128,155,41,83,171,64,66,36,37,23,70,77,159,78,74,163,145,104,177,169,55,124,123,153,150,149,13,134,122,20,68,17,19,106,166,179,121,80,118,89,168,14,60,85,82,72,62,137,24,44,88,102,129,154,87,86,56,157,108,144,133,25,95,92,160,165,115,120,7,178,47,51,30,109,2,18,136,90,167,75,39,3,34,10,97,156,57,113,32,4,50,38,63,11,1,91,98,142,161,59,148,9,5,140,71,119,99,49,117,151,146,143,100,65,112,81,48,94,26,101,126,127,180,176,103,96,170,164,54,28,73,33,125,58,158,135,52,43,139,152,29,16,12,45,172,116,107,35,84,130,174,173,175,22,6,132,110,105,69,67,131,76